data/solutions/recovery/degenerate/moderate/flexible/degenerate_moderate_instance4/4.sol
Elapsed time: 0.04
Upper bound: 6166971.0
Planning weighted value: 27606994.0
C[0]=6166971.0
C[1]=6165851.0
C[2]=0.0
y[0]=1
y[1]=0
y[2]=1
y[3]=1
y[4]=0
y[5]=0
y[6]=0
y[7]=1
y[8]=1
y[9]=1
y[10]=0
y[11]=0
y[12]=1
y[13]=1
y[14]=0
y[15]=1
y[16]=0
y[17]=0
y[18]=1
y[19]=0
y[20]=1
y[21]=0
y[22]=0
y[23]=0
y[24]=0
