data/solutions/recovery/degenerate/moderate/flexible/degenerate_moderate_instance4/4.log

Log started (V12.6.3.0) Sat Apr 21 11:01:50 2018

New value for default parallel thread count: 1

Problem '/tmp/tmpblmPg4.pyomo.lp' read.
Read time = 0.00 sec. (0.02 ticks)

Problem name         : /tmp/tmpblmPg4.pyomo.lp
Objective sense      : Minimize
Variables            :      80  [Nneg: 1,  Binary: 75,  General Integer: 4]
Objective nonzeros   :       1
Linear constraints   :      58  [Less: 28,  Equal: 30]
  Nonzeros           :    1076
  RHS nonzeros       :      51

Variables            : Min LB: 0.000000         Max UB: 1.000000       
Objective nonzeros   : Min   : 1.000000         Max   : 1.000000       
Linear constraints   :
  Nonzeros           : Min   : 1.000000         Max   : 1072398.       
  RHS nonzeros       : Min   : 1.000000         Max   : 3.000000       
Tried aggregator 2 times.
MIP Presolve eliminated 28 rows and 30 columns.
Aggregator did 27 substitutions.
Reduced MIP has 3 rows, 23 columns, and 61 nonzeros.
Reduced MIP has 22 binaries, 1 generals, 0 SOSs, and 0 indicators.
Presolve time = 0.00 sec. (0.24 ticks)
Found incumbent of value 1.2332822e+07 after 0.00 sec. (0.28 ticks)
Probing fixed 0 vars, tightened 5 bounds.
Probing time = 0.00 sec. (0.01 ticks)
Tried aggregator 1 time.
Reduced MIP has 3 rows, 23 columns, and 61 nonzeros.
Reduced MIP has 22 binaries, 1 generals, 0 SOSs, and 0 indicators.
Presolve time = 0.00 sec. (0.03 ticks)
Probing time = 0.00 sec. (0.01 ticks)
MIP emphasis: balance optimality and feasibility.
MIP search method: dynamic search.
Parallel mode: none, using 1 thread.
Root relaxation solution time = 0.00 sec. (0.02 ticks)

        Nodes                                         Cuts/
   Node  Left     Objective  IInf  Best Integer    Best Bound    ItCnt     Gap

*     0+    0                       1.23328e+07  1072398.0000            91.30%
      0     0  6166411.0000     1   1.23328e+07  6166411.0000        2   50.00%
*     0+    0                      6364335.0000  6166411.0000             3.11%
      0     0  6166411.0000     2  6364335.0000      Fract: 1        6    3.11%
*     0+    0                      6231143.0000  6166411.0000             1.04%
*     0+    0                      6213170.0000  6166411.0000             0.75%
*     0+    0                      6206267.0000  6166411.0000             0.64%
*     0+    0                      6188294.0000  6166411.0000             0.35%
      0     2  6166411.0000     2  6188294.0000  6166411.0000        6    0.35%
Elapsed time = 0.00 sec. (0.63 ticks, tree = 0.01 MB, solutions = 6)
*    10+    8                      6166971.0000  6166411.0000             0.01%

Gomory fractional cuts applied:  1

Root node processing (before b&c):
  Real time             =    0.00 sec. (0.63 ticks)
Sequential b&c:
  Real time             =    0.00 sec. (0.07 ticks)
                          ------------
Total (root+branch&cut) =    0.00 sec. (0.70 ticks)

Solution pool: 7 solutions saved.

MIP - Integer optimal, tolerance (0.0001/1e-06):  Objective =  6.1669710000e+06
Current MIP best bound =  6.1664110000e+06 (gap = 560, 0.01%)
Solution time =    0.00 sec.  Iterations = 20  Nodes = 10 (9)
Deterministic time = 0.70 ticks  (234.06 ticks/sec)


Incumbent solution written to file '/tmp/tmpXsvLgY.cplex.sol'.
